(declare-const term_to_project_onto Real)
(declare-const term_to_project_onto0 Real)
(assert (exists ((|y'?1| Int) (|__cost'?2| Int) (y?3 Int) (__cost?4 Int))
         (and (<= (+ (- __cost?4) 1) 0) (<= (+ (- y?3) 1) 0)
                (<= (- __cost?4) 0) (<= (+ (- __cost?4) -1) 0)
                (= (+ |y'?1| (- y?3) 1) 0)
                (= (+ |__cost'?2| (- __cost?4) -1) 0)
                (= term_to_project_onto0 (+ |__cost'?2| (- __cost?4)))
                (= term_to_project_onto (+ |y'?1| (- y?3))))))
(check-sat)
